100
128
45
23
16
14
42
53
36
15
2
7
27
13
44
22
19
63
7
14
11
17
30
44
10
8
7
11
41
11
64
8
40
25
20
57
10
37
13
20
10
40
1
21
13
13
23
17
20
22
13
14
9
10
2
18
28
8
32
45
26
38
10
27
20
8
27
40
8
17
14
60
53
39
22
12
22
39
54
42
49
39
45
19
6
31
51
44
29
48
18
28
31
63
34
29
22
31
63
24
22
64